ACTORES = {Actor1, Actor2, Actor3, Actor4, Actor5, Actor6, Actor7} ;

Escenas = [| 0,1,0,0,0,0,1,0,10
           | 0,1,1,1,0,1,1,1,20
           | 1,1,1,1,0,1,0,0,5
           | 0,1,1,1,0,0,1,1,5
           | 1,0,0,0,1,1,0,0,15
           | 1,0,0,0,1,0,1,1,10
           | 1,1,0,1,0,1,1,0,10|]; 
           
Duracion = [2,1,1,1,3,4,2,3];
